19
24
181
0
93
112
39
8
110
487
237
15
0
0
24
32
83
198
17
24
43
32
64
10
52
7
33
0
47
32
42
41
243
66
15
63
195
9
79
27
0
13
19
28
132
24
0
0
7
108
18
205
154
0
478
152
19
236
77
75
20
14
249
19
26
10
0
48
63
192
10
0
62
14
0
47
27
0
18
45
246
12
15
17
14
76
0
0
92
23
49
233
8
35
14
37
167
79
210
57
